language ESSENCE' 1.0

letting jobs = 102
letting horizon = 807
letting resourcesRenew = 2
letting resourcesNonrenew = 2
letting resourceLimits = [72, 78, 528, 478]
letting successors = [[2, 3, 4, 5, 6, 7, 8, 9, 10, 11, 12, 13, 14, 15, 16, 17, 18, 19, 20, 21, 23, 24, 25, 30, 33, 39, 40, 42, 45], [100, 97, 72, 69, 60, 58, 57, 53, 49, 48, 43, 37, 32, 31, 26], [101, 99, 97, 95, 92, 89, 69, 65, 63, 61, 57, 54, 37, 34, 22], [98, 96, 93, 91, 72, 71, 64, 56, 51, 43, 32, 31, 29, 27], [98, 97, 92, 70, 68, 64, 63, 61, 57, 50, 44, 41, 37, 34, 29], [98, 95, 93, 89, 72, 69, 67, 59, 54, 53, 49, 48, 43, 41, 38, 26], [101, 97, 83, 72, 70, 68, 67, 64, 63, 60, 59, 54, 53, 50, 46, 37, 31], [98, 97, 96, 84, 72, 70, 69, 68, 67, 64, 63, 62, 61, 59, 57, 54, 49, 48, 47, 44], [99, 97, 96, 95, 89, 64, 61, 59, 50, 49, 37, 22], [100, 98, 86, 71, 70, 68, 63, 62, 52, 48, 28], [100, 99, 97, 96, 89, 71, 69, 67, 63, 62, 59, 57, 55, 47, 37], [96, 95, 94, 92, 89, 87, 83, 71, 68, 67, 64, 63, 59, 57, 53, 49, 37], [99, 97, 93, 92, 91, 84, 81, 70, 69, 68, 63, 62, 60, 59, 58, 54, 47, 44], [97, 95, 91, 89, 88, 87, 85, 70, 69, 68, 65, 63, 56, 54, 53, 35], [97, 96, 95, 93, 89, 83, 78, 72, 69, 67, 60, 54, 53, 50, 48, 43], [96, 89, 87, 85, 83, 72, 71, 70, 69, 68, 59, 58, 56, 53, 37], [98, 96, 93, 84, 68, 62, 61, 60, 52, 49, 48, 47], [99, 98, 93, 91, 90, 88, 87, 85, 83, 69, 67, 66, 64, 61, 56, 55, 53], [97, 93, 90, 89, 84, 72, 70, 63, 56, 55, 49, 47], [100, 84, 83, 69, 67, 66, 61, 55, 36], [97, 93, 90, 89, 88, 87, 86, 83, 82, 76, 72, 71, 70, 68, 64, 62, 61, 50], [98, 94, 93, 91, 90, 85, 81, 75, 71, 70, 68, 67, 53, 47], [100, 97, 94, 93, 91, 90, 89, 87, 85, 83, 81, 80, 79, 76, 75, 71, 67, 66, 53], [96, 94, 90, 88, 87, 85, 83, 81, 76, 72, 69, 68, 67, 66, 64, 62, 53], [99, 98, 97, 96, 95, 85, 83, 76, 75, 71, 68, 67, 62, 61, 48], [96, 92, 91, 88, 87, 85, 84, 83, 79, 77, 76, 75, 66, 63, 62, 61], [95, 94, 92, 89, 87, 84, 82, 76, 75, 73, 70, 69, 68, 63, 61], [96, 95, 92, 91, 85, 84, 78, 76, 75, 73, 61, 47], [86, 85, 84, 81, 80, 76, 69, 67, 62, 47], [95, 94, 93, 91, 89, 88, 87, 86, 85, 83, 82, 79, 77, 76, 75, 74, 67], [99, 95, 89, 87, 82, 79, 78, 77, 73, 61, 55], [92, 90, 89, 88, 86, 79, 70, 68, 67, 61, 54], [89, 87, 84, 83, 82, 78, 67, 66, 50], [94, 88, 84, 79, 72, 67, 59, 56], [90, 86, 83, 82, 78, 77, 75, 67, 66, 61], [98, 95, 94, 93, 91, 89, 76, 75, 73, 57], [93, 91, 90, 88, 84, 81, 80, 76, 75, 73, 66], [96, 90, 84, 78, 76, 74, 73, 68, 61], [95, 90, 85, 83, 82, 81, 80, 78, 77, 76, 73], [95, 92, 91, 86, 85, 83, 79, 78, 77, 67], [96, 94, 91, 84, 76, 75, 73, 71, 66], [95, 79, 75, 74, 67, 56], [88, 87, 82, 79, 77, 76, 75, 74], [89, 86, 83, 82, 79, 76, 75, 73], [97, 95, 90, 89, 84, 78, 66], [86, 84, 82, 80, 79, 76, 73], [88, 87, 83, 82, 79, 66], [94, 92, 90, 81, 73, 66], [91, 85, 77, 76, 75, 74], [85, 80, 79, 77, 75, 73], [89, 81, 80, 78, 76, 73], [92, 89, 88, 75, 67], [86, 84, 82, 77, 73], [77, 76, 75, 74, 73], [92, 86, 76, 75, 74], [81, 76, 62], [85, 79, 78, 77], [77, 74, 67], [80, 74, 73], [75, 74, 73], [81, 80], [78, 73], [78, 74], [75, 74], [75, 74], [74], [73], [77], [79], [80], [78], [77], [102], [102], [102], [102], [102], [102], [102], [102], [102], [102], [102], [102], [102], [102], [102], [102], [102], [102], [102], [102], [102], [102], [102], [102], [102], [102], [102], [102], [102], []]
letting durations = [[0], [1, 2, 5], [4, 7, 8], [3, 3, 8], [5, 7, 9], [1, 5, 6], [5, 9, 9], [3, 8, 8], [2, 5, 10], [2, 8, 10], [2, 4, 5], [1, 6, 10], [4, 5, 10], [2, 4, 6], [5, 7, 10], [3, 5, 10], [6, 9, 10], [2, 3, 10], [1, 2, 7], [1, 2, 2], [3, 6, 7], [3, 9, 10], [2, 5, 8], [2, 4, 4], [2, 6, 7], [6, 9, 10], [6, 8, 10], [3, 9, 10], [3, 5, 9], [2, 8, 10], [6, 8, 9], [2, 5, 6], [1, 8, 9], [4, 5, 6], [3, 6, 9], [2, 5, 6], [8, 9, 10], [2, 4, 6], [3, 5, 5], [3, 4, 6], [4, 9, 10], [4, 7, 10], [3, 5, 8], [2, 5, 6], [2, 3, 3], [6, 8, 9], [1, 4, 7], [6, 8, 10], [1, 5, 9], [1, 2, 2], [4, 9, 10], [2, 5, 10], [4, 5, 8], [4, 6, 10], [3, 4, 5], [6, 7, 8], [1, 9, 10], [4, 6, 8], [3, 4, 10], [1, 2, 7], [3, 3, 4], [1, 9, 10], [1, 1, 5], [3, 4, 10], [1, 6, 8], [1, 5, 8], [3, 9, 10], [4, 6, 9], [3, 6, 10], [1, 6, 6], [2, 8, 10], [4, 6, 8], [2, 7, 8], [2, 5, 10], [5, 7, 8], [2, 5, 9], [3, 3, 6], [3, 5, 6], [2, 6, 6], [5, 6, 10], [5, 5, 7], [4, 6, 8], [5, 5, 9], [1, 3, 7], [5, 7, 10], [5, 8, 9], [5, 6, 8], [2, 3, 8], [2, 5, 7], [3, 7, 9], [1, 6, 7], [9, 9, 10], [5, 6, 9], [6, 9, 10], [3, 3, 10], [4, 5, 6], [3, 4, 10], [3, 4, 6], [3, 5, 9], [2, 4, 7], [1, 9, 10], [0]]
letting resourceUsage = [[[0, 0, 0, 0]], [[0, 6, 3, 5], [0, 5, 3, 2], [7, 0, 3, 1]], [[9, 0, 4, 1], [0, 7, 3, 1], [9, 0, 3, 1]], [[9, 0, 10, 5], [0, 6, 7, 2], [7, 0, 4, 1]], [[7, 0, 9, 8], [5, 0, 7, 6], [0, 3, 7, 6]], [[0, 10, 3, 5], [0, 8, 3, 5], [0, 8, 1, 5]], [[0, 10, 6, 6], [0, 10, 3, 4], [7, 0, 2, 3]], [[0, 1, 5, 8], [5, 0, 5, 7], [0, 1, 3, 6]], [[0, 5, 2, 6], [3, 0, 2, 3], [2, 0, 1, 3]], [[0, 5, 4, 7], [0, 3, 3, 7], [0, 3, 3, 1]], [[5, 0, 8, 6], [0, 4, 5, 3], [0, 4, 3, 1]], [[0, 10, 9, 7], [0, 7, 9, 7], [0, 4, 9, 7]], [[0, 4, 1, 8], [4, 0, 1, 6], [4, 0, 1, 2]], [[0, 4, 6, 7], [0, 4, 4, 5], [0, 4, 4, 4]], [[0, 4, 8, 4], [1, 0, 8, 4], [1, 0, 6, 4]], [[4, 0, 10, 8], [2, 0, 10, 8], [0, 7, 10, 7]], [[0, 8, 8, 4], [6, 0, 8, 4], [5, 0, 4, 2]], [[7, 0, 9, 5], [0, 2, 9, 4], [0, 2, 9, 2]], [[9, 0, 9, 7], [0, 6, 6, 7], [0, 6, 2, 3]], [[6, 0, 3, 4], [0, 5, 3, 3], [5, 0, 2, 2]], [[0, 3, 9, 7], [5, 0, 8, 7], [3, 0, 8, 6]], [[0, 8, 5, 5], [7, 0, 2, 5], [0, 3, 2, 5]], [[10, 0, 6, 5], [0, 6, 6, 4], [0, 4, 5, 4]], [[6, 0, 7, 8], [3, 0, 6, 7], [0, 1, 3, 7]], [[6, 0, 7, 6], [4, 0, 4, 5], [4, 0, 3, 1]], [[0, 4, 5, 1], [0, 3, 4, 1], [0, 1, 3, 1]], [[0, 10, 1, 10], [0, 7, 1, 9], [8, 0, 1, 9]], [[9, 0, 4, 6], [7, 0, 3, 5], [7, 0, 3, 4]], [[8, 0, 7, 6], [7, 0, 4, 6], [5, 0, 2, 4]], [[0, 10, 9, 2], [1, 0, 7, 2], [1, 0, 6, 2]], [[0, 10, 3, 4], [7, 0, 2, 3], [4, 0, 2, 1]], [[7, 0, 9, 8], [5, 0, 8, 7], [5, 0, 7, 5]], [[0, 3, 7, 7], [6, 0, 6, 6], [4, 0, 5, 3]], [[0, 9, 5, 6], [0, 9, 4, 2], [0, 8, 3, 2]], [[0, 7, 5, 7], [0, 7, 4, 4], [4, 0, 4, 2]], [[0, 7, 7, 7], [2, 0, 7, 6], [0, 6, 6, 1]], [[7, 0, 7, 8], [0, 3, 7, 7], [4, 0, 7, 5]], [[7, 0, 9, 8], [5, 0, 7, 4], [0, 4, 3, 1]], [[0, 4, 8, 3], [0, 3, 7, 2], [1, 0, 3, 2]], [[0, 4, 8, 10], [0, 3, 7, 6], [0, 2, 5, 2]], [[0, 7, 6, 5], [0, 7, 5, 5], [3, 0, 2, 5]], [[2, 0, 6, 6], [2, 0, 5, 4], [0, 7, 3, 3]], [[7, 0, 6, 8], [0, 4, 3, 7], [0, 3, 2, 7]], [[8, 0, 7, 8], [0, 9, 3, 5], [0, 9, 3, 4]], [[8, 0, 6, 5], [0, 2, 6, 5], [2, 0, 5, 4]], [[0, 8, 6, 3], [0, 8, 6, 2], [0, 8, 6, 1]], [[5, 0, 10, 4], [5, 0, 9, 4], [4, 0, 8, 3]], [[0, 6, 8, 6], [3, 0, 7, 5], [2, 0, 4, 5]], [[7, 0, 6, 5], [0, 6, 5, 4], [5, 0, 5, 3]], [[0, 5, 5, 4], [9, 0, 5, 4], [0, 2, 5, 4]], [[9, 0, 10, 9], [0, 3, 9, 8], [0, 3, 8, 7]], [[0, 3, 7, 2], [9, 0, 6, 2], [9, 0, 3, 2]], [[0, 7, 3, 4], [7, 0, 3, 2], [0, 7, 3, 2]], [[0, 8, 8, 4], [5, 0, 7, 2], [5, 0, 2, 2]], [[0, 3, 10, 5], [0, 2, 9, 3], [0, 2, 7, 3]], [[0, 8, 4, 9], [0, 8, 3, 9], [0, 8, 2, 8]], [[0, 5, 7, 3], [0, 4, 4, 3], [0, 1, 4, 1]], [[7, 0, 8, 7], [4, 0, 8, 5], [0, 3, 6, 3]], [[0, 8, 2, 5], [4, 0, 2, 5], [0, 7, 1, 3]], [[0, 8, 5, 6], [8, 0, 4, 5], [7, 0, 1, 3]], [[5, 0, 7, 7], [0, 3, 6, 5], [0, 1, 6, 3]], [[0, 7, 10, 10], [8, 0, 9, 7], [7, 0, 7, 2]], [[0, 10, 5, 5], [5, 0, 5, 3], [0, 10, 5, 2]], [[4, 0, 4, 6], [3, 0, 3, 5], [3, 0, 2, 5]], [[0, 8, 6, 1], [8, 0, 5, 1], [7, 0, 4, 1]], [[0, 7, 7, 3], [5, 0, 6, 2], [5, 0, 4, 2]], [[7, 0, 8, 9], [0, 5, 4, 9], [0, 5, 1, 9]], [[10, 0, 9, 8], [0, 3, 6, 6], [0, 2, 5, 6]], [[9, 0, 5, 10], [6, 0, 4, 9], [0, 4, 3, 9]], [[0, 4, 3, 3], [0, 2, 2, 2], [5, 0, 2, 1]], [[0, 7, 6, 3], [3, 0, 5, 3], [3, 0, 5, 2]], [[9, 0, 8, 8], [6, 0, 7, 8], [0, 2, 7, 6]], [[8, 0, 8, 3], [0, 4, 4, 1], [3, 0, 3, 1]], [[0, 4, 5, 3], [4, 0, 4, 3], [0, 4, 4, 3]], [[0, 6, 6, 9], [0, 5, 6, 7], [0, 1, 6, 6]], [[0, 8, 4, 10], [0, 8, 2, 7], [1, 0, 2, 5]], [[8, 0, 3, 4], [0, 1, 3, 3], [0, 1, 3, 1]], [[0, 10, 4, 7], [9, 0, 4, 7], [0, 9, 2, 6]], [[5, 0, 8, 4], [0, 4, 5, 3], [5, 0, 3, 2]], [[5, 0, 8, 8], [0, 10, 5, 7], [0, 10, 4, 7]], [[0, 5, 7, 2], [9, 0, 6, 1], [0, 5, 5, 1]], [[0, 7, 5, 2], [0, 5, 3, 2], [4, 0, 2, 1]], [[0, 7, 3, 9], [3, 0, 2, 6], [3, 0, 2, 1]], [[6, 0, 5, 8], [0, 4, 4, 6], [4, 0, 2, 6]], [[4, 0, 7, 10], [3, 0, 6, 8], [1, 0, 6, 8]], [[0, 9, 3, 8], [2, 0, 3, 5], [1, 0, 3, 5]], [[0, 7, 8, 7], [0, 7, 6, 6], [6, 0, 6, 5]], [[0, 7, 9, 3], [4, 0, 7, 2], [2, 0, 7, 2]], [[7, 0, 10, 4], [0, 9, 9, 4], [4, 0, 9, 3]], [[7, 0, 10, 4], [0, 6, 8, 2], [6, 0, 6, 1]], [[3, 0, 8, 8], [3, 0, 7, 7], [3, 0, 6, 6]], [[0, 9, 6, 10], [4, 0, 4, 9], [0, 5, 3, 8]], [[9, 0, 10, 6], [9, 0, 9, 5], [0, 7, 9, 4]], [[9, 0, 8, 5], [0, 5, 7, 5], [8, 0, 7, 2]], [[7, 0, 3, 4], [0, 9, 1, 3], [0, 8, 1, 2]], [[0, 2, 4, 7], [0, 2, 3, 5], [0, 2, 3, 4]], [[0, 7, 7, 6], [8, 0, 5, 5], [8, 0, 4, 5]], [[7, 0, 8, 2], [5, 0, 7, 2], [0, 3, 5, 1]], [[4, 0, 6, 9], [3, 0, 6, 6], [3, 0, 6, 5]], [[0, 5, 4, 6], [0, 5, 3, 4], [0, 5, 2, 2]], [[2, 0, 8, 8], [0, 3, 8, 8], [1, 0, 8, 7]], [[0, 0, 0, 0]]]
